10 45
1 2 1
1 3 11
1 4 21
1 5 19
1 6 28
1 7 4
1 8 2
1 9 1
1 10 23
2 3 25
2 4 28
2 5 16
2 6 10
2 7 1
2 8 13
2 9 29
2 10 20
3 4 3
3 5 1
3 6 7
3 7 18
3 8 29
3 9 13
3 10 13
4 5 15
4 6 1
4 7 8
4 8 18
4 9 27
4 10 11
5 6 29
5 7 3
5 8 19
5 9 14
5 10 14
6 7 27
6 8 12
6 9 20
6 10 29
7 8 15
7 9 4
7 10 27
8 9 27
8 10 10
9 10 28
